(declare-datatypes (T1 T2 T3 T4 T5)
 ((Recv (mk-recv (match T1) (ep T2) (var T3) (event T4) (nearestwait T5)))))
(declare-datatypes (T1 T2 T3 T4)
((Send (mk-send (match T1) (ep T2) (value T3) (event T4)))))
(define-fun HB ((a Int) (b Int)) Bool
  (if(< a b)
 true
 false))

(define-fun MATCH ((r (Recv Int Int Int Int Int)) (s (Send Int Int Int Int))) Bool
(if(and (= (ep r) (ep s)) (= (var r) (value s))
(= (event s) (nearestwait r)) (= (match r) (event s))
(= (match s) (event r)))
true
false
)
)

(declare-const T1_0 Int)
(declare-const T1_1 Int)
(declare-const myVal_1_0_0 Int)
(declare-const T1_2 Int)
(declare-const sendBuf_1_0_0 Int)
(declare-const T1_3 Int)
(declare-const T0_0 Int)
(declare-const T0_1 Int)
(declare-const myVal_0_0_0 Int)
(declare-const T0_2 Int)
(declare-const sendBuf_0_0_0 Int)
(declare-const T0_3 Int)
(declare-const T1_4 Int)
(declare-const recvBuf_1_0_0 Int)
(declare-const T1_5 Int)
(declare-const tid_1 Int)
(declare-const T2_0 Int)
(declare-const T2_1 Int)
(declare-const myVal_2_0_0 Int)
(declare-const T2_2 Int)
(declare-const sendBuf_2_0_0 Int)
(declare-const T2_3 Int)
(declare-const T2_4 Int)
(declare-const recvBuf_2_0_0 Int)
(declare-const T2_5 Int)
(declare-const tid_2 Int)
(declare-const T0_4 Int)
(declare-const recvBuf_0_0_0 Int)
(declare-const T0_5 Int)
(declare-const T0_6 Int)
(declare-const active_0_0_1 Int)
(declare-const T0_7 Int)
(declare-const tid_0 Int)
(declare-const T0_8 Int)
(declare-const T0_9 Int)
(declare-const sendBuf_0_0_1 Int)
(declare-const T0_10 Int)
(declare-const T1_6 Int)
(declare-const recvBuf_1_0_2 Int)
(declare-const T1_7 Int)
(declare-const active_1_0_1 Int)
(declare-const T1_8 Int)
(declare-const sendBuf_1_0_1 Int)
(declare-const T1_9 Int)
(declare-const T1_10 Int)
(declare-const T2_6 Int)
(declare-const recvBuf_2_0_2 Int)
(declare-const T2_7 Int)
(declare-const active_2_0_1 Int)
(declare-const T2_8 Int)
(declare-const sendBuf_2_0_1 Int)
(declare-const T2_9 Int)
(declare-const T2_10 Int)
(declare-const T0_11 Int)
(declare-const recvBuf_0_0_2 Int)
(declare-const T0_12 Int)
(declare-const count_0_0_0 Int)
(declare-const T0_13 Int)
(declare-const T0_14 Int)
(declare-const T0_15 Int)
(declare-const sendBuf_0_0_2 Int)
(declare-const T0_16 Int)
(declare-const T1_11 Int)
(declare-const recvBuf_1_0_3 Int)
(declare-const T1_12 Int)
(declare-const sendBuf_1_0_2 Int)
(declare-const T1_13 Int)
(declare-const T1_14 Int)
(declare-const T1_15 Int)
(declare-const myVal_1_1_0 Int)
(declare-const T1_16 Int)
(declare-const sendBuf_1_1_0 Int)
(declare-const T1_17 Int)
(declare-const T2_11 Int)
(declare-const recvBuf_2_0_3 Int)
(declare-const T2_12 Int)
(declare-const sendBuf_2_0_2 Int)
(declare-const T2_13 Int)
(declare-const T2_14 Int)
(declare-const T2_15 Int)
(declare-const myVal_2_1_0 Int)
(declare-const T2_16 Int)
(declare-const sendBuf_2_1_0 Int)
(declare-const T2_17 Int)
(declare-const T2_18 Int)
(declare-const recvBuf_2_1_0 Int)
(declare-const T2_19 Int)
(declare-const T0_17 Int)
(declare-const recvBuf_0_0_3 Int)
(declare-const T0_18 Int)
(declare-const active_0_1_0 Int)
(declare-const T0_19 Int)
(declare-const recvBuf_0_1_1 Int)
(declare-const T0_20 Int)
(declare-const sendBuf_0_1_0 Int)
(declare-const T0_21 Int)
(declare-const T0_22 Int)
(declare-const active_0_1_1 Int)
(declare-const T0_23 Int)
(declare-const T0_24 Int)
(declare-const T0_25 Int)
(declare-const sendBuf_0_1_1 Int)
(declare-const T0_26 Int)
(declare-const T1_18 Int)
(declare-const recvBuf_1_1_0 Int)
(declare-const T1_19 Int)
(declare-const T1_20 Int)
(declare-const recvBuf_1_1_2 Int)
(declare-const T1_21 Int)
(declare-const active_1_1_1 Int)
(declare-const T1_22 Int)
(declare-const sendBuf_1_1_1 Int)
(declare-const T1_23 Int)
(declare-const T1_24 Int)
(declare-const T2_20 Int)
(declare-const recvBuf_2_1_2 Int)
(declare-const T2_21 Int)
(declare-const active_2_1_1 Int)
(declare-const T2_22 Int)
(declare-const sendBuf_2_1_1 Int)
(declare-const T2_23 Int)
(declare-const T2_24 Int)
(declare-const T0_27 Int)
(declare-const recvBuf_0_1_2 Int)
(declare-const T0_28 Int)
(declare-const count_0_1_0 Int)
(declare-const T0_29 Int)
(declare-const T0_30 Int)
(declare-const T0_31 Int)
(declare-const sendBuf_0_1_2 Int)
(declare-const T0_32 Int)
(declare-const T1_25 Int)
(declare-const recvBuf_1_1_3 Int)
(declare-const T1_26 Int)
(declare-const sendBuf_1_1_2 Int)
(declare-const T1_27 Int)
(declare-const T1_28 Int)
(declare-const T1_29 Int)
(declare-const myVal_1_2_0 Int)
(declare-const T1_30 Int)
(declare-const sendBuf_1_2_0 Int)
(declare-const T1_31 Int)
(declare-const T2_25 Int)
(declare-const recvBuf_2_1_3 Int)
(declare-const T2_26 Int)
(declare-const sendBuf_2_1_2 Int)
(declare-const T2_27 Int)
(declare-const T2_28 Int)
(declare-const T2_29 Int)
(declare-const myVal_2_2_0 Int)
(declare-const T2_30 Int)
(declare-const sendBuf_2_2_0 Int)
(declare-const T2_31 Int)
(declare-const T2_32 Int)
(declare-const recvBuf_2_2_0 Int)
(declare-const T2_33 Int)
(declare-const T2_34 Int)
(declare-const active_2_2_1 Int)
(declare-const T0_33 Int)
(declare-const recvBuf_0_1_3 Int)
(declare-const T0_34 Int)
(declare-const active_0_2_0 Int)
(declare-const T0_35 Int)
(declare-const recvBuf_0_2_1 Int)
(declare-const T0_36 Int)
(declare-const sendBuf_0_2_0 Int)
(declare-const T0_37 Int)
(declare-const T0_38 Int)
(declare-const active_0_2_1 Int)
(declare-const T0_39 Int)
(declare-const T0_40 Int)
(declare-const T0_41 Int)
(declare-const sendBuf_0_2_1 Int)
(declare-const T0_42 Int)
(declare-const T1_32 Int)
(declare-const recvBuf_1_2_0 Int)
(declare-const T1_33 Int)
(declare-const T1_34 Int)
(declare-const recvBuf_1_2_2 Int)
(declare-const T1_35 Int)
(declare-const active_1_2_1 Int)
(declare-const T1_36 Int)
(declare-const sendBuf_1_2_1 Int)
(declare-const T1_37 Int)
(declare-const T1_38 Int)
(declare-const T2_35 Int)
(declare-const T2_36 Int)
(declare-const recvBuf_2_2_2 Int)
(declare-const T2_37 Int)
(declare-const T2_38 Int)
(declare-const sendBuf_2_2_1 Int)
(declare-const T2_39 Int)
(declare-const T2_40 Int)
(declare-const T0_43 Int)
(declare-const recvBuf_0_2_2 Int)
(declare-const T0_44 Int)
(declare-const count_0_2_0 Int)
(declare-const T0_45 Int)
(declare-const T0_46 Int)
(declare-const T0_47 Int)
(declare-const sendBuf_0_2_2 Int)
(declare-const T0_48 Int)
(declare-const T1_39 Int)
(declare-const recvBuf_1_2_3 Int)
(declare-const T1_40 Int)
(declare-const sendBuf_1_2_2 Int)
(declare-const T1_41 Int)
(declare-const T1_42 Int)
(declare-const T1_43 Int)
(declare-const T1_44 Int)
(declare-const sendBuf_1_2_3 Int)
(declare-const T1_45 Int)
(declare-const T2_41 Int)
(declare-const recvBuf_2_2_3 Int)
(declare-const T2_42 Int)
(declare-const sendBuf_2_2_2 Int)
(declare-const T2_43 Int)
(declare-const T2_44 Int)
(declare-const T2_45 Int)
(declare-const recvBuf_2_2_4 Int)
(declare-const T2_46 Int)
(declare-const sendBuf_2_2_3 Int)
(declare-const T2_47 Int)
(declare-const T2_48 Int)
(declare-const the_leader_tid_2_2_2 Int)
(declare-const T0_49 Int)
(declare-const recvBuf_0_2_3 Int)
(declare-const T0_50 Int)
(declare-const T0_51 Int)
(declare-const T0_52 Int)
(declare-const recvBuf_0_2_4 Int)
(declare-const T0_53 Int)
(declare-const sendBuf_0_2_3 Int)
(declare-const T0_54 Int)
(declare-const T0_55 Int)
(declare-const the_leader_tid_0_0_2 Int)
(declare-const T1_46 Int)
(declare-const recvBuf_1_2_4 Int)
(declare-const T1_47 Int)
(declare-const the_leader_tid_1_1_2 Int)

(declare-const sendT1_3 (Send Int Int Int Int))
(assert (and (= (ep sendT1_3) 2) (= (event sendT1_3) T1_3) (= (value sendT1_3) 1)))
(declare-const sendT0_3 (Send Int Int Int Int))
(assert (and (= (ep sendT0_3) 1) (= (event sendT0_3) T0_3) (= (value sendT0_3) 0)))
(declare-const recvT1_4 (Recv Int Int Int Int Int))
(assert (and (= (ep recvT1_4) 1) (= (event recvT1_4) T1_4) (= (var recvT1_4) recvBuf_1_0_0)))
(declare-const sendT2_3 (Send Int Int Int Int))
(assert (and (= (ep sendT2_3) 0) (= (event sendT2_3) T2_3) (= (value sendT2_3) 1)))
(declare-const recvT2_4 (Recv Int Int Int Int Int))
(assert (and (= (ep recvT2_4) 2) (= (event recvT2_4) T2_4) (= (var recvT2_4) recvBuf_2_0_0)))
(declare-const recvT0_4 (Recv Int Int Int Int Int))
(assert (and (= (ep recvT0_4) 0) (= (event recvT0_4) T0_4) (= (var recvT0_4) recvBuf_0_0_0)))
(declare-const sendT0_10 (Send Int Int Int Int))
(assert (and (= (ep sendT0_10) 1) (= (event sendT0_10) T0_10) (= (value sendT0_10) 0)))
(declare-const recvT1_6 (Recv Int Int Int Int Int))
(assert (and (= (ep recvT1_6) 1) (= (event recvT1_6) T1_6) (= (var recvT1_6) recvBuf_1_0_2)))
(declare-const sendT1_9 (Send Int Int Int Int))
(assert (and (= (ep sendT1_9) 2) (= (event sendT1_9) T1_9) (= (value sendT1_9) 1)))
(declare-const recvT2_6 (Recv Int Int Int Int Int))
(assert (and (= (ep recvT2_6) 2) (= (event recvT2_6) T2_6) (= (var recvT2_6) recvBuf_2_0_2)))
(declare-const sendT2_9 (Send Int Int Int Int))
(assert (and (= (ep sendT2_9) 0) (= (event sendT2_9) T2_9) (= (value sendT2_9) 2)))
(declare-const recvT0_11 (Recv Int Int Int Int Int))
(assert (and (= (ep recvT0_11) 0) (= (event recvT0_11) T0_11) (= (var recvT0_11) recvBuf_0_0_2)))
(declare-const sendT0_16 (Send Int Int Int Int))
(assert (and (= (ep sendT0_16) 1) (= (event sendT0_16) T0_16) (= (value sendT0_16) 0)))
(declare-const recvT1_11 (Recv Int Int Int Int Int))
(assert (and (= (ep recvT1_11) 1) (= (event recvT1_11) T1_11) (= (var recvT1_11) recvBuf_1_0_3)))
(declare-const sendT1_13 (Send Int Int Int Int))
(assert (and (= (ep sendT1_13) 2) (= (event sendT1_13) T1_13) (= (value sendT1_13) 0)))
(declare-const sendT1_17 (Send Int Int Int Int))
(assert (and (= (ep sendT1_17) 2) (= (event sendT1_17) T1_17) (= (value sendT1_17) 0)))
(declare-const recvT2_11 (Recv Int Int Int Int Int))
(assert (and (= (ep recvT2_11) 2) (= (event recvT2_11) T2_11) (= (var recvT2_11) recvBuf_2_0_3)))
(declare-const sendT2_13 (Send Int Int Int Int))
(assert (and (= (ep sendT2_13) 0) (= (event sendT2_13) T2_13) (= (value sendT2_13) 0)))
(declare-const sendT2_17 (Send Int Int Int Int))
(assert (and (= (ep sendT2_17) 0) (= (event sendT2_17) T2_17) (= (value sendT2_17) 0)))
(declare-const recvT2_18 (Recv Int Int Int Int Int))
(assert (and (= (ep recvT2_18) 2) (= (event recvT2_18) T2_18) (= (var recvT2_18) recvBuf_2_1_0)))
(declare-const recvT0_17 (Recv Int Int Int Int Int))
(assert (and (= (ep recvT0_17) 0) (= (event recvT0_17) T0_17) (= (var recvT0_17) recvBuf_0_0_3)))
(declare-const recvT0_19 (Recv Int Int Int Int Int))
(assert (and (= (ep recvT0_19) 0) (= (event recvT0_19) T0_19) (= (var recvT0_19) recvBuf_0_1_1)))
(declare-const sendT0_21 (Send Int Int Int Int))
(assert (and (= (ep sendT0_21) 1) (= (event sendT0_21) T0_21) (= (value sendT0_21) 0)))
(declare-const sendT0_26 (Send Int Int Int Int))
(assert (and (= (ep sendT0_26) 1) (= (event sendT0_26) T0_26) (= (value sendT0_26) 0)))
(declare-const recvT1_18 (Recv Int Int Int Int Int))
(assert (and (= (ep recvT1_18) 1) (= (event recvT1_18) T1_18) (= (var recvT1_18) recvBuf_1_1_0)))
(declare-const recvT1_20 (Recv Int Int Int Int Int))
(assert (and (= (ep recvT1_20) 1) (= (event recvT1_20) T1_20) (= (var recvT1_20) recvBuf_1_1_2)))
(declare-const sendT1_23 (Send Int Int Int Int))
(assert (and (= (ep sendT1_23) 2) (= (event sendT1_23) T1_23) (= (value sendT1_23) 1)))
(declare-const recvT2_20 (Recv Int Int Int Int Int))
(assert (and (= (ep recvT2_20) 2) (= (event recvT2_20) T2_20) (= (var recvT2_20) recvBuf_2_1_2)))
(declare-const sendT2_23 (Send Int Int Int Int))
(assert (and (= (ep sendT2_23) 0) (= (event sendT2_23) T2_23) (= (value sendT2_23) 2)))
(declare-const recvT0_27 (Recv Int Int Int Int Int))
(assert (and (= (ep recvT0_27) 0) (= (event recvT0_27) T0_27) (= (var recvT0_27) recvBuf_0_1_2)))
(declare-const sendT0_32 (Send Int Int Int Int))
(assert (and (= (ep sendT0_32) 1) (= (event sendT0_32) T0_32) (= (value sendT0_32) 0)))
(declare-const recvT1_25 (Recv Int Int Int Int Int))
(assert (and (= (ep recvT1_25) 1) (= (event recvT1_25) T1_25) (= (var recvT1_25) recvBuf_1_1_3)))
(declare-const sendT1_27 (Send Int Int Int Int))
(assert (and (= (ep sendT1_27) 2) (= (event sendT1_27) T1_27) (= (value sendT1_27) 0)))
(declare-const sendT1_31 (Send Int Int Int Int))
(assert (and (= (ep sendT1_31) 2) (= (event sendT1_31) T1_31) (= (value sendT1_31) 1)))
(declare-const recvT2_25 (Recv Int Int Int Int Int))
(assert (and (= (ep recvT2_25) 2) (= (event recvT2_25) T2_25) (= (var recvT2_25) recvBuf_2_1_3)))
(declare-const sendT2_27 (Send Int Int Int Int))
(assert (and (= (ep sendT2_27) 0) (= (event sendT2_27) T2_27) (= (value sendT2_27) 0)))
(declare-const sendT2_31 (Send Int Int Int Int))
(assert (and (= (ep sendT2_31) 0) (= (event sendT2_31) T2_31) (= (value sendT2_31) 0)))
(declare-const recvT2_32 (Recv Int Int Int Int Int))
(assert (and (= (ep recvT2_32) 2) (= (event recvT2_32) T2_32) (= (var recvT2_32) recvBuf_2_2_0)))
(declare-const recvT0_33 (Recv Int Int Int Int Int))
(assert (and (= (ep recvT0_33) 0) (= (event recvT0_33) T0_33) (= (var recvT0_33) recvBuf_0_1_3)))
(declare-const recvT0_35 (Recv Int Int Int Int Int))
(assert (and (= (ep recvT0_35) 0) (= (event recvT0_35) T0_35) (= (var recvT0_35) recvBuf_0_2_1)))
(declare-const sendT0_37 (Send Int Int Int Int))
(assert (and (= (ep sendT0_37) 1) (= (event sendT0_37) T0_37) (= (value sendT0_37) 0)))
(declare-const sendT0_42 (Send Int Int Int Int))
(assert (and (= (ep sendT0_42) 1) (= (event sendT0_42) T0_42) (= (value sendT0_42) 0)))
(declare-const recvT1_32 (Recv Int Int Int Int Int))
(assert (and (= (ep recvT1_32) 1) (= (event recvT1_32) T1_32) (= (var recvT1_32) recvBuf_1_2_0)))
(declare-const recvT1_34 (Recv Int Int Int Int Int))
(assert (and (= (ep recvT1_34) 1) (= (event recvT1_34) T1_34) (= (var recvT1_34) recvBuf_1_2_2)))
(declare-const sendT1_37 (Send Int Int Int Int))
(assert (and (= (ep sendT1_37) 2) (= (event sendT1_37) T1_37) (= (value sendT1_37) 1)))
(declare-const recvT2_36 (Recv Int Int Int Int Int))
(assert (and (= (ep recvT2_36) 2) (= (event recvT2_36) T2_36) (= (var recvT2_36) recvBuf_2_2_2)))
(declare-const sendT2_39 (Send Int Int Int Int))
(assert (and (= (ep sendT2_39) 0) (= (event sendT2_39) T2_39) (= (value sendT2_39) 1)))
(declare-const recvT0_43 (Recv Int Int Int Int Int))
(assert (and (= (ep recvT0_43) 0) (= (event recvT0_43) T0_43) (= (var recvT0_43) recvBuf_0_2_2)))
(declare-const sendT0_48 (Send Int Int Int Int))
(assert (and (= (ep sendT0_48) 1) (= (event sendT0_48) T0_48) (= (value sendT0_48) 1)))
(declare-const recvT1_39 (Recv Int Int Int Int Int))
(assert (and (= (ep recvT1_39) 1) (= (event recvT1_39) T1_39) (= (var recvT1_39) recvBuf_1_2_3)))
(declare-const sendT1_41 (Send Int Int Int Int))
(assert (and (= (ep sendT1_41) 2) (= (event sendT1_41) T1_41) (= (value sendT1_41) 1)))
(declare-const sendT1_45 (Send Int Int Int Int))
(assert (and (= (ep sendT1_45) 2) (= (event sendT1_45) T1_45) (= (value sendT1_45) 1)))
(declare-const recvT2_41 (Recv Int Int Int Int Int))
(assert (and (= (ep recvT2_41) 2) (= (event recvT2_41) T2_41) (= (var recvT2_41) recvBuf_2_2_3)))
(declare-const sendT2_43 (Send Int Int Int Int))
(assert (and (= (ep sendT2_43) 0) (= (event sendT2_43) T2_43) (= (value sendT2_43) 1)))
(declare-const recvT2_45 (Recv Int Int Int Int Int))
(assert (and (= (ep recvT2_45) 2) (= (event recvT2_45) T2_45) (= (var recvT2_45) recvBuf_2_2_4)))
(declare-const sendT2_47 (Send Int Int Int Int))
(assert (and (= (ep sendT2_47) 0) (= (event sendT2_47) T2_47) (= (value sendT2_47) 1)))
(declare-const recvT0_49 (Recv Int Int Int Int Int))
(assert (and (= (ep recvT0_49) 0) (= (event recvT0_49) T0_49) (= (var recvT0_49) recvBuf_0_2_3)))
(declare-const recvT0_52 (Recv Int Int Int Int Int))
(assert (and (= (ep recvT0_52) 0) (= (event recvT0_52) T0_52) (= (var recvT0_52) recvBuf_0_2_4)))
(declare-const sendT0_54 (Send Int Int Int Int))
(assert (and (= (ep sendT0_54) 1) (= (event sendT0_54) T0_54) (= (value sendT0_54) 1)))
(declare-const recvT1_46 (Recv Int Int Int Int Int))
(assert (and (= (ep recvT1_46) 1) (= (event recvT1_46) T1_46) (= (var recvT1_46) recvBuf_1_2_4)))

(assert (and
(HB T0_3 T0_10) (HB T1_4 T1_6) (HB T1_3 T1_9) (HB T2_4 T2_6) (HB T2_3 T2_9) (HB T0_4 T0_11) (HB T0_10 T0_16) (HB T1_6 T1_11) (HB T1_9 T1_13) (HB T1_13 T1_17) (HB T2_6 T2_11) (HB T2_9 T2_13) (HB T2_13 T2_17) (HB T2_11 T2_18) (HB T0_11 T0_17) (HB T0_17 T0_19) (HB T0_16 T0_21) (HB T0_21 T0_26) (HB T1_11 T1_18) (HB T1_18 T1_20) (HB T1_17 T1_23) (HB T2_18 T2_20) (HB T2_17 T2_23) (HB T0_19 T0_27) (HB T0_26 T0_32) (HB T1_20 T1_25) (HB T1_23 T1_27) (HB T1_27 T1_31) (HB T2_20 T2_25) (HB T2_23 T2_27) (HB T2_27 T2_31) (HB T2_25 T2_32) (HB T0_27 T0_33) (HB T0_33 T0_35) (HB T0_32 T0_37) (HB T0_37 T0_42) (HB T1_25 T1_32) (HB T1_32 T1_34) (HB T1_31 T1_37) (HB T2_32 T2_36) (HB T2_31 T2_39) (HB T0_35 T0_43) (HB T0_42 T0_48) (HB T1_34 T1_39) (HB T1_37 T1_41) (HB T1_41 T1_45) (HB T2_36 T2_41) (HB T2_39 T2_43) (HB T2_41 T2_45) (HB T2_43 T2_47) (HB T0_43 T0_49) (HB T0_49 T0_52) (HB T0_48 T0_54) (HB T1_39 T1_46) ))


(assert (and
(or (MATCH recvT1_20 sendT0_26) )
(or (MATCH recvT2_25 sendT1_27) )
(or (MATCH recvT1_6 sendT0_10) )
(or (MATCH recvT0_35 sendT2_31) )
(or (MATCH recvT1_4 sendT0_3) )
(or (MATCH recvT0_33 sendT2_27) )
(or (MATCH recvT2_20 sendT1_23) )
(or (MATCH recvT1_39 sendT0_48) )
(or (MATCH recvT1_34 sendT0_42) )
(or (MATCH recvT1_32 sendT0_37) )
(or (MATCH recvT0_19 sendT2_17) )
(or (MATCH recvT0_49 sendT2_43) )
(or (MATCH recvT2_36 sendT1_37) )
(or (MATCH recvT0_17 sendT2_13) )
(or (MATCH recvT2_32 sendT1_31) )
(or (MATCH recvT0_43 sendT2_39) )
(or (MATCH recvT0_11 sendT2_9) )
(or (MATCH recvT1_18 sendT0_21) )
(or (MATCH recvT1_46 sendT0_54) )
(or (MATCH recvT0_4 sendT2_3) )
(or (MATCH recvT2_6 sendT1_9) )
(or (MATCH recvT2_18 sendT1_17) )
(or (MATCH recvT1_11 sendT0_16) )
(or (MATCH recvT2_4 sendT1_3) )
(or (MATCH recvT0_27 sendT2_23) )
(or (MATCH recvT2_45 sendT1_45) )
(or (MATCH recvT2_11 sendT1_13) )
(or (MATCH recvT2_41 sendT1_41) )
(or (MATCH recvT0_52 sendT2_47) )
(or (MATCH recvT1_25 sendT0_32) )
))

(assert (= myVal_1_0_0 1))
(assert (= sendBuf_1_0_0 1))
(assert (= myVal_0_0_0 0))
(assert (= sendBuf_0_0_0 0))
(assert (= tid_1 0))
(assert (= myVal_2_0_0 1))
(assert (= sendBuf_2_0_0 1))
(assert (= tid_2 0))
(assert (and (= myVal_0_0_0 0) (= recvBuf_0_0_0 1)))
(assert (= active_0_0_1 0))
(assert (= tid_0 0))
(assert (= active_0_0_1 1))
(assert (= sendBuf_0_0_1 0))
(assert (= active_1_0_1 1))
(assert (= sendBuf_1_0_1 (+ recvBuf_1_0_2 1)))
(assert (= tid_1 0))
(assert (= active_2_0_1 1))
(assert (= sendBuf_2_0_1 (+ recvBuf_2_0_2 1)))
(assert (= tid_2 0))
(assert (= count_0_0_0 recvBuf_0_0_2))
(assert (= tid_0 0))
(assert (= count_0_0_0 1))
(assert (= sendBuf_0_0_2 0))
(assert (= sendBuf_1_0_2 recvBuf_1_0_3))
(assert (= myVal_1_1_0 0))
(assert (= sendBuf_1_1_0 0))
(assert (= sendBuf_2_0_2 recvBuf_2_0_3))
(assert (= myVal_2_1_0 0))
(assert (= sendBuf_2_1_0 0))
(assert (= tid_2 0))
(assert (= active_0_1_0 0))
(assert (= sendBuf_0_1_0 recvBuf_0_1_1))
(assert (= active_0_1_0 active_0_1_1))
(assert (= tid_0 0))
(assert (= active_0_1_1 1))
(assert (= sendBuf_0_1_1 0))
(assert (= tid_1 0))
(assert (= active_1_1_1 1))
(assert (= sendBuf_1_1_1 (+ recvBuf_1_1_2 1)))
(assert (= tid_1 0))
(assert (= active_2_1_1 1))
(assert (= sendBuf_2_1_1 (+ recvBuf_2_1_2 1)))
(assert (= tid_2 0))
(assert (= count_0_1_0 recvBuf_0_1_2))
(assert (= tid_0 0))
(assert (= count_0_1_0 1))
(assert (= sendBuf_0_1_2 0))
(assert (= sendBuf_1_1_2 recvBuf_1_1_3))
(assert (= myVal_1_2_0 1))
(assert (= sendBuf_1_2_0 1))
(assert (= sendBuf_2_1_2 recvBuf_2_1_3))
(assert (= myVal_2_2_0 0))
(assert (= sendBuf_2_2_0 0))
(assert (and (= myVal_2_2_0 0) (= recvBuf_2_2_0 1)))
(assert (= active_2_2_1 0))
(assert (= active_0_2_0 0))
(assert (= sendBuf_0_2_0 recvBuf_0_2_1))
(assert (= active_0_2_0 active_0_2_1))
(assert (= tid_0 0))
(assert (= active_0_2_1 1))
(assert (= sendBuf_0_2_1 0))
(assert (= tid_1 0))
(assert (= active_1_2_1 1))
(assert (= sendBuf_1_2_1 (+ recvBuf_1_2_2 1)))
(assert (= tid_1 0))
(assert (= tid_2 0))
(assert (= active_2_2_1 0))
(assert (= sendBuf_2_2_1 recvBuf_2_2_2))
(assert (= tid_2 0))
(assert (= count_0_2_0 recvBuf_0_2_2))
(assert (= tid_0 0))
(assert (= count_0_2_0 1))
(assert (= sendBuf_0_2_2 1))
(assert (= sendBuf_1_2_2 recvBuf_1_2_3))
(assert (= recvBuf_1_2_3 1))
(assert (= active_1_2_1 1))
(assert (= sendBuf_1_2_3 tid_1))
(assert (= sendBuf_2_2_2 recvBuf_2_2_3))
(assert (= recvBuf_2_2_3 1))
(assert (= sendBuf_2_2_3 recvBuf_2_2_4))
(assert (= the_leader_tid_2_2_2 recvBuf_2_2_4))
(assert (= count_0_2_0 1))
(assert (= active_0_2_1 1))
(assert (= sendBuf_0_2_3 recvBuf_0_2_4))
(assert (= the_leader_tid_0_0_2 recvBuf_0_2_4))
(assert (= the_leader_tid_1_1_2 tid_1))

(check-sat)
